(set-info :source |
 Generated by Alive 0.1
 More info in N. P. Lopes, D. Menendez, S. Nagarakatte, J. Regehr.
 Provably Correct Peephole Optimizations with Alive. In PLDI'15.
|)

(set-info :status unknown)
(declare-fun C () (_ BitVec 22))
(declare-fun %Y () (_ BitVec 22))
(declare-fun C1 () (_ BitVec 22))
(declare-fun |ana_isPowerOf2(abs(C))| () (_ BitVec 1))
(assert
 (let ((?x23013 (bvneg C)))
 (let ((?x114981 (ite (bvsge C (_ bv0 22)) C ?x23013)))
 (let (($x120470 (and (distinct (bvmul (bvadd %Y C1) C) (bvmul (bvsub (bvneg C1) %Y) ?x114981)) true)))
 (let (($x116642 (= |ana_isPowerOf2(abs(C))| (_ bv1 1))))
 (let (($x115012 (bvslt C (_ bv0 22))))
 (let (($x115594 (=> $x116642 (and (and (distinct ?x114981 (_ bv0 22)) true) (= (bvand ?x114981 (bvsub ?x114981 (_ bv1 22))) (_ bv0 22))))))
 (and $x115594 $x115012 $x116642 $x120470))))))))
(check-sat)
